GeneratedTests/Random_12/Random_12_20.tsp
NAME: Random_12_20
TYPE: TSP
DIMENSION: 12
EDGE_WEIGHT_TYPE: EUC_2D
NODE_COORD_SECTION
1 11.746189 12.761087
2 4.160574 15.118782
3 8.714096 5.1868258
4 4.9507675 17.976637
5 1.6137929 29.251953
6 28.292423 7.2000875
7 25.68198 17.197897
8 30.620543 12.894619
9 25.083801 12.894799
10 8.587204 5.1213927
11 2.4851997 31.114315
12 8.275907 17.778284
EOF
