GeneratedTests/Random_12/Random_12_20.txt
NAME: Random_12_20
TYPE: TSP
DIMENSION: 12
EDGE_WEIGHT_TYPE: EUC_2D
NODE_COORD_SECTION
1 4.768504 26.707815
2 7.6543617 33.076553
3 10.126689 30.913498
4 32.314445 32.03987
5 19.961588 14.35164
6 21.328953 12.094581
7 6.0177097 7.350032
8 6.9733076 25.800379
9 18.667355 2.7062137
10 32.397167 1.2667322
11 28.488426 23.230377
12 27.496456 5.8893003
EOF
